ilp_joint/output/ilp_eva.lp
Maximize
  0.05 Z_000 + 0.1 Z_001 + 0.4 Z_002 + 0.15 Z_003 + 0.35 Z_010 + 0.15 Z_011
   + 0.05 Z_012 + 0.2 Z_013 + 0.15 Z_020 + 0.1 Z_021 + 0.05 Z_022
   + 0.35 Z_023 + 0.05 Z_100 + 0.1 Z_101 + 0.35 Z_102 + 0.1 Z_103
   + 0.4 Z_110 + 0.1 Z_111 + 0.15 Z_113 + 0.25 Z_120 + 0.1 Z_121
   + 0.05 Z_122 + 0.35 Z_123 + 0.05 Z_200 + 0.1 Z_201 + 0.35 Z_202
   + 0.05 Z_203 + 0.25 Z_210 + 0.15 Z_211 + 0.05 Z_212 + 0.4 Z_213
   + 0.05 Z_300 + 0.05 Z_301 + 0.4 Z_302 + 0.05 Z_303 + 0.35 Z_310
   + 0.1 Z_311 + 0.05 Z_312 + 0.25 Z_313 + 0.2 Z_320 + 0.1 Z_321
   + 0.05 Z_322 + 0.35 Z_323 + [ 1.069192171096802 Z_000 * Z_100
   + 1.898338953578853 Z_000 * Z_110 + 1.758511543273926 Z_000 * Z_120
   + 1.522638559341431 Z_000 * Z_200 + 1.931424379348755 Z_000 * Z_210
   + 1.51315450668335 Z_000 * Z_300 + 1.984260644106651 Z_000 * Z_310
   + 2.091436810862573 Z_000 * Z_320 + 1.069192171096802 Z_001 * Z_101
   + 1.898338953578853 Z_001 * Z_111 + 1.758511543273926 Z_001 * Z_121
   + 1.522638559341431 Z_001 * Z_201 + 1.931424379348755 Z_001 * Z_211
   + 1.51315450668335 Z_001 * Z_301 + 1.984260644106651 Z_001 * Z_311
   + 2.091436810862573 Z_001 * Z_321 + 1.069192171096802 Z_002 * Z_102
   + 1.898338953578853 Z_002 * Z_112 + 1.758511543273926 Z_002 * Z_122
   + 1.522638559341431 Z_002 * Z_202 + 1.931424379348755 Z_002 * Z_212
   + 1.51315450668335 Z_002 * Z_302 + 1.984260644106651 Z_002 * Z_312
   + 2.091436810862573 Z_002 * Z_322 + 1.069192171096802 Z_003 * Z_103
   + 1.898338953578853 Z_003 * Z_113 + 1.758511543273926 Z_003 * Z_123
   + 1.522638559341431 Z_003 * Z_203 + 1.931424379348755 Z_003 * Z_213
   + 1.51315450668335 Z_003 * Z_303 + 1.984260644106651 Z_003 * Z_313
   + 2.091436810862573 Z_003 * Z_323 + 1.830114006996155 Z_010 * Z_100
   + 1.982391945342239 Z_010 * Z_110 + 1.010720491409302 Z_010 * Z_120
   + 2.00252103805542 Z_010 * Z_200 + 1.540284752845764 Z_010 * Z_210
   + 1.826069235801697 Z_010 * Z_300 + 2.034356820412951 Z_010 * Z_310
   + 1.990320221039419 Z_010 * Z_320 + 1.830114006996155 Z_011 * Z_101
   + 1.982391945342239 Z_011 * Z_111 + 1.010720491409302 Z_011 * Z_121
   + 2.00252103805542 Z_011 * Z_201 + 1.540284752845764 Z_011 * Z_211
   + 1.826069235801697 Z_011 * Z_301 + 2.034356820412951 Z_011 * Z_311
   + 1.990320221039419 Z_011 * Z_321 + 1.830114006996155 Z_012 * Z_102
   + 1.982391945342239 Z_012 * Z_112 + 1.010720491409302 Z_012 * Z_122
   + 2.00252103805542 Z_012 * Z_202 + 1.540284752845764 Z_012 * Z_212
   + 1.826069235801697 Z_012 * Z_302 + 2.034356820412951 Z_012 * Z_312
   + 1.990320221039419 Z_012 * Z_322 + 1.830114006996155 Z_013 * Z_103
   + 1.982391945342239 Z_013 * Z_113 + 1.010720491409302 Z_013 * Z_123
   + 2.00252103805542 Z_013 * Z_203 + 1.540284752845764 Z_013 * Z_213
   + 1.826069235801697 Z_013 * Z_303 + 2.034356820412951 Z_013 * Z_313
   + 1.990320221039419 Z_013 * Z_323 + 1.8771653175354 Z_020 * Z_100
   + 2.10944278763101 Z_020 * Z_110 + 1.372814893722534 Z_020 * Z_120
   + 1.972496628761292 Z_020 * Z_200 + 1.765377402305603 Z_020 * Z_210
   + 1.890414118766785 Z_020 * Z_300 + 1.974905208815883 Z_020 * Z_310
   + 2.213277585397578 Z_020 * Z_320 + 1.8771653175354 Z_021 * Z_101
   + 2.10944278763101 Z_021 * Z_111 + 1.372814893722534 Z_021 * Z_121
   + 1.972496628761292 Z_021 * Z_201 + 1.765377402305603 Z_021 * Z_211
   + 1.890414118766785 Z_021 * Z_301 + 1.974905208815883 Z_021 * Z_311
   + 2.213277585397578 Z_021 * Z_321 + 1.8771653175354 Z_022 * Z_102
   + 2.10944278763101 Z_022 * Z_112 + 1.372814893722534 Z_022 * Z_122
   + 1.972496628761292 Z_022 * Z_202 + 1.765377402305603 Z_022 * Z_212
   + 1.890414118766785 Z_022 * Z_302 + 1.974905208815883 Z_022 * Z_312
   + 2.213277585397578 Z_022 * Z_322 + 1.8771653175354 Z_023 * Z_103
   + 2.10944278763101 Z_023 * Z_113 + 1.372814893722534 Z_023 * Z_123
   + 1.972496628761292 Z_023 * Z_203 + 1.765377402305603 Z_023 * Z_213
   + 1.890414118766785 Z_023 * Z_303 + 1.974905208815883 Z_023 * Z_313
   + 2.213277585397578 Z_023 * Z_323 + 1.397196412086487 Z_100 * Z_200
   + 1.808202862739563 Z_100 * Z_210 + 1.31258225440979 Z_100 * Z_300
   + 1.807017425110157 Z_100 * Z_310 + 1.97604325294982 Z_100 * Z_320
   + 1.397196412086487 Z_101 * Z_201 + 1.808202862739563 Z_101 * Z_211
   + 1.31258225440979 Z_101 * Z_301 + 1.807017425110157 Z_101 * Z_311
   + 1.97604325294982 Z_101 * Z_321 + 1.397196412086487 Z_102 * Z_202
   + 1.808202862739563 Z_102 * Z_212 + 1.31258225440979 Z_102 * Z_302
   + 1.807017425110157 Z_102 * Z_312 + 1.97604325294982 Z_102 * Z_322
   + 1.397196412086487 Z_103 * Z_203 + 1.808202862739563 Z_103 * Z_213
   + 1.31258225440979 Z_103 * Z_303 + 1.807017425110157 Z_103 * Z_313
   + 1.97604325294982 Z_103 * Z_323 + 1.889739986171659 Z_110 * Z_200
   + 2.081137210753683 Z_110 * Z_210 + 1.901568120905466 Z_110 * Z_300
   + 1.813933600376319 Z_110 * Z_310 + 1.766220755752773 Z_110 * Z_320
   + 1.889739986171659 Z_111 * Z_201 + 2.081137210753683 Z_111 * Z_211
   + 1.901568120905466 Z_111 * Z_301 + 1.813933600376319 Z_111 * Z_311
   + 1.766220755752773 Z_111 * Z_321 + 1.889739986171659 Z_112 * Z_202
   + 2.081137210753683 Z_112 * Z_212 + 1.901568120905466 Z_112 * Z_302
   + 1.813933600376319 Z_112 * Z_312 + 1.766220755752773 Z_112 * Z_322
   + 1.889739986171659 Z_113 * Z_203 + 2.081137210753683 Z_113 * Z_213
   + 1.901568120905466 Z_113 * Z_303 + 1.813933600376319 Z_113 * Z_313
   + 1.766220755752773 Z_113 * Z_323 + 2.109829664230347 Z_120 * Z_200
   + 1.642409324645996 Z_120 * Z_210 + 1.863347411155701 Z_120 * Z_300
   + 2.00537279254299 Z_120 * Z_310 + 1.867601159408074 Z_120 * Z_320
   + 2.109829664230347 Z_121 * Z_201 + 1.642409324645996 Z_121 * Z_211
   + 1.863347411155701 Z_121 * Z_301 + 2.00537279254299 Z_121 * Z_311
   + 1.867601159408074 Z_121 * Z_321 + 2.109829664230347 Z_122 * Z_202
   + 1.642409324645996 Z_122 * Z_212 + 1.863347411155701 Z_122 * Z_302
   + 2.00537279254299 Z_122 * Z_312 + 1.867601159408074 Z_122 * Z_322
   + 2.109829664230347 Z_123 * Z_203 + 1.642409324645996 Z_123 * Z_213
   + 1.863347411155701 Z_123 * Z_303 + 2.00537279254299 Z_123 * Z_313
   + 1.867601159408074 Z_123 * Z_323 + 1.586498141288757 Z_200 * Z_300
   + 1.882905145517499 Z_200 * Z_310 + 2.212063616728511 Z_200 * Z_320
   + 1.586498141288757 Z_201 * Z_301 + 1.882905145517499 Z_201 * Z_311
   + 2.212063616728511 Z_201 * Z_321 + 1.586498141288757 Z_202 * Z_302
   + 1.882905145517499 Z_202 * Z_312 + 2.212063616728511 Z_202 * Z_322
   + 1.586498141288757 Z_203 * Z_303 + 1.882905145517499 Z_203 * Z_313
   + 2.212063616728511 Z_203 * Z_323 + 1.724319219589233 Z_210 * Z_300
   + 1.982817226460857 Z_210 * Z_310 + 1.944157244035234 Z_210 * Z_320
   + 1.724319219589233 Z_211 * Z_301 + 1.982817226460857 Z_211 * Z_311
   + 1.944157244035234 Z_211 * Z_321 + 1.724319219589233 Z_212 * Z_302
   + 1.982817226460857 Z_212 * Z_312 + 1.944157244035234 Z_212 * Z_322
   + 1.724319219589233 Z_213 * Z_303 + 1.982817226460857 Z_213 * Z_313
   + 1.944157244035234 Z_213 * Z_323 ] / 2 
Subject To
 constraint1_00: Z_000 + Z_001 + Z_002 + Z_003 <= 1
 constraint1_01: Z_010 + Z_011 + Z_012 + Z_013 <= 1
 constraint1_02: Z_020 + Z_021 + Z_022 + Z_023 <= 1
 constraint1_10: Z_100 + Z_101 + Z_102 + Z_103 <= 1
 constraint1_11: Z_110 + Z_111 + Z_112 + Z_113 <= 1
 constraint1_12: Z_120 + Z_121 + Z_122 + Z_123 <= 1
 constraint1_20: Z_200 + Z_201 + Z_202 + Z_203 <= 1
 constraint1_21: Z_210 + Z_211 + Z_212 + Z_213 <= 1
 constraint1_30: Z_300 + Z_301 + Z_302 + Z_303 <= 1
 constraint1_31: Z_310 + Z_311 + Z_312 + Z_313 <= 1
 constraint1_32: Z_320 + Z_321 + Z_322 + Z_323 <= 1
 constraint2_00: Z_000 + Z_010 + Z_020 <= 1
 constraint2_01: Z_001 + Z_011 + Z_021 <= 1
 constraint2_02: Z_002 + Z_012 + Z_022 <= 1
 constraint2_03: Z_003 + Z_013 + Z_023 <= 1
 constraint2_10: Z_100 + Z_110 + Z_120 <= 1
 constraint2_11: Z_101 + Z_111 + Z_121 <= 1
 constraint2_12: Z_102 + Z_112 + Z_122 <= 1
 constraint2_13: Z_103 + Z_113 + Z_123 <= 1
 constraint2_20: Z_200 + Z_210 <= 1
 constraint2_21: Z_201 + Z_211 <= 1
 constraint2_22: Z_202 + Z_212 <= 1
 constraint2_23: Z_203 + Z_213 <= 1
 constraint2_30: Z_300 + Z_310 + Z_320 <= 1
 constraint2_31: Z_301 + Z_311 + Z_321 <= 1
 constraint2_32: Z_302 + Z_312 + Z_322 <= 1
 constraint2_33: Z_303 + Z_313 + Z_323 <= 1
Bounds
Binaries
 Z_000 Z_001 Z_002 Z_003 Z_010 Z_011 Z_012 Z_013 Z_020 Z_021 Z_022 Z_023
 Z_100 Z_101 Z_102 Z_103 Z_110 Z_111 Z_112 Z_113 Z_120 Z_121 Z_122 Z_123
 Z_200 Z_201 Z_202 Z_203 Z_210 Z_211 Z_212 Z_213 Z_300 Z_301 Z_302 Z_303
 Z_310 Z_311 Z_312 Z_313 Z_320 Z_321 Z_322 Z_323
End
