ilp_joint/output/ilp_eva.mps
NAME srl_ilp
* Max problem is converted into Min one
ROWS
 N  OBJ
 L  constraint1_00
 L  constraint1_01
 L  constraint1_02
 L  constraint1_10
 L  constraint1_11
 L  constraint1_12
 L  constraint1_20
 L  constraint1_21
 L  constraint1_30
 L  constraint1_31
 L  constraint1_32
 L  constraint2_00
 L  constraint2_01
 L  constraint2_02
 L  constraint2_03
 L  constraint2_10
 L  constraint2_11
 L  constraint2_12
 L  constraint2_13
 L  constraint2_20
 L  constraint2_21
 L  constraint2_22
 L  constraint2_23
 L  constraint2_30
 L  constraint2_31
 L  constraint2_32
 L  constraint2_33
COLUMNS
    MARKER    'MARKER'                 'INTORG'
    Z_000     OBJ       -0.05
    Z_000     constraint1_00  1
    Z_000     constraint2_00  1
    Z_001     OBJ       -0.1
    Z_001     constraint1_00  1
    Z_001     constraint2_01  1
    Z_002     OBJ       -0.4
    Z_002     constraint1_00  1
    Z_002     constraint2_02  1
    Z_003     OBJ       -0.15
    Z_003     constraint1_00  1
    Z_003     constraint2_03  1
    Z_010     OBJ       -0.35
    Z_010     constraint1_01  1
    Z_010     constraint2_00  1
    Z_011     OBJ       -0.15
    Z_011     constraint1_01  1
    Z_011     constraint2_01  1
    Z_012     OBJ       -0.05
    Z_012     constraint1_01  1
    Z_012     constraint2_02  1
    Z_013     OBJ       -0.2
    Z_013     constraint1_01  1
    Z_013     constraint2_03  1
    Z_020     OBJ       -0.15
    Z_020     constraint1_02  1
    Z_020     constraint2_00  1
    Z_021     OBJ       -0.1
    Z_021     constraint1_02  1
    Z_021     constraint2_01  1
    Z_022     OBJ       -0.05
    Z_022     constraint1_02  1
    Z_022     constraint2_02  1
    Z_023     OBJ       -0.35
    Z_023     constraint1_02  1
    Z_023     constraint2_03  1
    Z_100     OBJ       -0.05
    Z_100     constraint1_10  1
    Z_100     constraint2_10  1
    Z_101     OBJ       -0.1
    Z_101     constraint1_10  1
    Z_101     constraint2_11  1
    Z_102     OBJ       -0.35
    Z_102     constraint1_10  1
    Z_102     constraint2_12  1
    Z_103     OBJ       -0.1
    Z_103     constraint1_10  1
    Z_103     constraint2_13  1
    Z_110     OBJ       -0.4
    Z_110     constraint1_11  1
    Z_110     constraint2_10  1
    Z_111     OBJ       -0.1
    Z_111     constraint1_11  1
    Z_111     constraint2_11  1
    Z_112     constraint1_11  1
    Z_112     constraint2_12  1
    Z_113     OBJ       -0.15
    Z_113     constraint1_11  1
    Z_113     constraint2_13  1
    Z_120     OBJ       -0.25
    Z_120     constraint1_12  1
    Z_120     constraint2_10  1
    Z_121     OBJ       -0.1
    Z_121     constraint1_12  1
    Z_121     constraint2_11  1
    Z_122     OBJ       -0.05
    Z_122     constraint1_12  1
    Z_122     constraint2_12  1
    Z_123     OBJ       -0.35
    Z_123     constraint1_12  1
    Z_123     constraint2_13  1
    Z_200     OBJ       -0.05
    Z_200     constraint1_20  1
    Z_200     constraint2_20  1
    Z_201     OBJ       -0.1
    Z_201     constraint1_20  1
    Z_201     constraint2_21  1
    Z_202     OBJ       -0.35
    Z_202     constraint1_20  1
    Z_202     constraint2_22  1
    Z_203     OBJ       -0.05
    Z_203     constraint1_20  1
    Z_203     constraint2_23  1
    Z_210     OBJ       -0.25
    Z_210     constraint1_21  1
    Z_210     constraint2_20  1
    Z_211     OBJ       -0.15
    Z_211     constraint1_21  1
    Z_211     constraint2_21  1
    Z_212     OBJ       -0.05
    Z_212     constraint1_21  1
    Z_212     constraint2_22  1
    Z_213     OBJ       -0.4
    Z_213     constraint1_21  1
    Z_213     constraint2_23  1
    Z_300     OBJ       -0.05
    Z_300     constraint1_30  1
    Z_300     constraint2_30  1
    Z_301     OBJ       -0.05
    Z_301     constraint1_30  1
    Z_301     constraint2_31  1
    Z_302     OBJ       -0.4
    Z_302     constraint1_30  1
    Z_302     constraint2_32  1
    Z_303     OBJ       -0.05
    Z_303     constraint1_30  1
    Z_303     constraint2_33  1
    Z_310     OBJ       -0.35
    Z_310     constraint1_31  1
    Z_310     constraint2_30  1
    Z_311     OBJ       -0.1
    Z_311     constraint1_31  1
    Z_311     constraint2_31  1
    Z_312     OBJ       -0.05
    Z_312     constraint1_31  1
    Z_312     constraint2_32  1
    Z_313     OBJ       -0.25
    Z_313     constraint1_31  1
    Z_313     constraint2_33  1
    Z_320     OBJ       -0.2
    Z_320     constraint1_32  1
    Z_320     constraint2_30  1
    Z_321     OBJ       -0.1
    Z_321     constraint1_32  1
    Z_321     constraint2_31  1
    Z_322     OBJ       -0.05
    Z_322     constraint1_32  1
    Z_322     constraint2_32  1
    Z_323     OBJ       -0.35
    Z_323     constraint1_32  1
    Z_323     constraint2_33  1
    MARKER    'MARKER'                 'INTEND'
RHS
    RHS1      constraint1_00  1
    RHS1      constraint1_01  1
    RHS1      constraint1_02  1
    RHS1      constraint1_10  1
    RHS1      constraint1_11  1
    RHS1      constraint1_12  1
    RHS1      constraint1_20  1
    RHS1      constraint1_21  1
    RHS1      constraint1_30  1
    RHS1      constraint1_31  1
    RHS1      constraint1_32  1
    RHS1      constraint2_00  1
    RHS1      constraint2_01  1
    RHS1      constraint2_02  1
    RHS1      constraint2_03  1
    RHS1      constraint2_10  1
    RHS1      constraint2_11  1
    RHS1      constraint2_12  1
    RHS1      constraint2_13  1
    RHS1      constraint2_20  1
    RHS1      constraint2_21  1
    RHS1      constraint2_22  1
    RHS1      constraint2_23  1
    RHS1      constraint2_30  1
    RHS1      constraint2_31  1
    RHS1      constraint2_32  1
    RHS1      constraint2_33  1
BOUNDS
 UP BND1      Z_000     1
 UP BND1      Z_001     1
 UP BND1      Z_002     1
 UP BND1      Z_003     1
 UP BND1      Z_010     1
 UP BND1      Z_011     1
 UP BND1      Z_012     1
 UP BND1      Z_013     1
 UP BND1      Z_020     1
 UP BND1      Z_021     1
 UP BND1      Z_022     1
 UP BND1      Z_023     1
 UP BND1      Z_100     1
 UP BND1      Z_101     1
 UP BND1      Z_102     1
 UP BND1      Z_103     1
 UP BND1      Z_110     1
 UP BND1      Z_111     1
 UP BND1      Z_112     1
 UP BND1      Z_113     1
 UP BND1      Z_120     1
 UP BND1      Z_121     1
 UP BND1      Z_122     1
 UP BND1      Z_123     1
 UP BND1      Z_200     1
 UP BND1      Z_201     1
 UP BND1      Z_202     1
 UP BND1      Z_203     1
 UP BND1      Z_210     1
 UP BND1      Z_211     1
 UP BND1      Z_212     1
 UP BND1      Z_213     1
 UP BND1      Z_300     1
 UP BND1      Z_301     1
 UP BND1      Z_302     1
 UP BND1      Z_303     1
 UP BND1      Z_310     1
 UP BND1      Z_311     1
 UP BND1      Z_312     1
 UP BND1      Z_313     1
 UP BND1      Z_320     1
 UP BND1      Z_321     1
 UP BND1      Z_322     1
 UP BND1      Z_323     1
QUADOBJ
    Z_000     Z_100     -5.3459608554840088e-01
    Z_000     Z_110     -9.4916947678942665e-01
    Z_000     Z_120     -8.7925577163696289e-01
    Z_000     Z_200     -7.6131927967071533e-01
    Z_000     Z_210     -9.6571218967437744e-01
    Z_000     Z_300     -7.5657725334167480e-01
    Z_000     Z_310     -9.9213032205332541e-01
    Z_000     Z_320     -1.0457184054312865e+00
    Z_001     Z_101     -5.3459608554840088e-01
    Z_001     Z_111     -9.4916947678942665e-01
    Z_001     Z_121     -8.7925577163696289e-01
    Z_001     Z_201     -7.6131927967071533e-01
    Z_001     Z_211     -9.6571218967437744e-01
    Z_001     Z_301     -7.5657725334167480e-01
    Z_001     Z_311     -9.9213032205332541e-01
    Z_001     Z_321     -1.0457184054312865e+00
    Z_002     Z_102     -5.3459608554840088e-01
    Z_002     Z_112     -9.4916947678942665e-01
    Z_002     Z_122     -8.7925577163696289e-01
    Z_002     Z_202     -7.6131927967071533e-01
    Z_002     Z_212     -9.6571218967437744e-01
    Z_002     Z_302     -7.5657725334167480e-01
    Z_002     Z_312     -9.9213032205332541e-01
    Z_002     Z_322     -1.0457184054312865e+00
    Z_003     Z_103     -5.3459608554840088e-01
    Z_003     Z_113     -9.4916947678942665e-01
    Z_003     Z_123     -8.7925577163696289e-01
    Z_003     Z_203     -7.6131927967071533e-01
    Z_003     Z_213     -9.6571218967437744e-01
    Z_003     Z_303     -7.5657725334167480e-01
    Z_003     Z_313     -9.9213032205332541e-01
    Z_003     Z_323     -1.0457184054312865e+00
    Z_010     Z_100     -9.1505700349807739e-01
    Z_010     Z_110     -9.9119597267111970e-01
    Z_010     Z_120     -5.0536024570465088e-01
    Z_010     Z_200     -1.0012605190277100e+00
    Z_010     Z_210     -7.7014237642288208e-01
    Z_010     Z_300     -9.1303461790084839e-01
    Z_010     Z_310     -1.0171784102064756e+00
    Z_010     Z_320     -9.9516011051970932e-01
    Z_011     Z_101     -9.1505700349807739e-01
    Z_011     Z_111     -9.9119597267111970e-01
    Z_011     Z_121     -5.0536024570465088e-01
    Z_011     Z_201     -1.0012605190277100e+00
    Z_011     Z_211     -7.7014237642288208e-01
    Z_011     Z_301     -9.1303461790084839e-01
    Z_011     Z_311     -1.0171784102064756e+00
    Z_011     Z_321     -9.9516011051970932e-01
    Z_012     Z_102     -9.1505700349807739e-01
    Z_012     Z_112     -9.9119597267111970e-01
    Z_012     Z_122     -5.0536024570465088e-01
    Z_012     Z_202     -1.0012605190277100e+00
    Z_012     Z_212     -7.7014237642288208e-01
    Z_012     Z_302     -9.1303461790084839e-01
    Z_012     Z_312     -1.0171784102064756e+00
    Z_012     Z_322     -9.9516011051970932e-01
    Z_013     Z_103     -9.1505700349807739e-01
    Z_013     Z_113     -9.9119597267111970e-01
    Z_013     Z_123     -5.0536024570465088e-01
    Z_013     Z_203     -1.0012605190277100e+00
    Z_013     Z_213     -7.7014237642288208e-01
    Z_013     Z_303     -9.1303461790084839e-01
    Z_013     Z_313     -1.0171784102064756e+00
    Z_013     Z_323     -9.9516011051970932e-01
    Z_020     Z_100     -9.3858265876770020e-01
    Z_020     Z_110     -1.0547213938155051e+00
    Z_020     Z_120     -6.8640744686126709e-01
    Z_020     Z_200     -9.8624831438064575e-01
    Z_020     Z_210     -8.8268870115280151e-01
    Z_020     Z_300     -9.4520705938339233e-01
    Z_020     Z_310     -9.8745260440794136e-01
    Z_020     Z_320     -1.1066387926987891e+00
    Z_021     Z_101     -9.3858265876770020e-01
    Z_021     Z_111     -1.0547213938155051e+00
    Z_021     Z_121     -6.8640744686126709e-01
    Z_021     Z_201     -9.8624831438064575e-01
    Z_021     Z_211     -8.8268870115280151e-01
    Z_021     Z_301     -9.4520705938339233e-01
    Z_021     Z_311     -9.8745260440794136e-01
    Z_021     Z_321     -1.1066387926987891e+00
    Z_022     Z_102     -9.3858265876770020e-01
    Z_022     Z_112     -1.0547213938155051e+00
    Z_022     Z_122     -6.8640744686126709e-01
    Z_022     Z_202     -9.8624831438064575e-01
    Z_022     Z_212     -8.8268870115280151e-01
    Z_022     Z_302     -9.4520705938339233e-01
    Z_022     Z_312     -9.8745260440794136e-01
    Z_022     Z_322     -1.1066387926987891e+00
    Z_023     Z_103     -9.3858265876770020e-01
    Z_023     Z_113     -1.0547213938155051e+00
    Z_023     Z_123     -6.8640744686126709e-01
    Z_023     Z_203     -9.8624831438064575e-01
    Z_023     Z_213     -8.8268870115280151e-01
    Z_023     Z_303     -9.4520705938339233e-01
    Z_023     Z_313     -9.8745260440794136e-01
    Z_023     Z_323     -1.1066387926987891e+00
    Z_100     Z_200     -6.9859820604324341e-01
    Z_100     Z_210     -9.0410143136978149e-01
    Z_100     Z_300     -6.5629112720489502e-01
    Z_100     Z_310     -9.0350871255507859e-01
    Z_100     Z_320     -9.8802162647490999e-01
    Z_101     Z_201     -6.9859820604324341e-01
    Z_101     Z_211     -9.0410143136978149e-01
    Z_101     Z_301     -6.5629112720489502e-01
    Z_101     Z_311     -9.0350871255507859e-01
    Z_101     Z_321     -9.8802162647490999e-01
    Z_102     Z_202     -6.9859820604324341e-01
    Z_102     Z_212     -9.0410143136978149e-01
    Z_102     Z_302     -6.5629112720489502e-01
    Z_102     Z_312     -9.0350871255507859e-01
    Z_102     Z_322     -9.8802162647490999e-01
    Z_103     Z_203     -6.9859820604324341e-01
    Z_103     Z_213     -9.0410143136978149e-01
    Z_103     Z_303     -6.5629112720489502e-01
    Z_103     Z_313     -9.0350871255507859e-01
    Z_103     Z_323     -9.8802162647490999e-01
    Z_110     Z_200     -9.4486999308582931e-01
    Z_110     Z_210     -1.0405686053768415e+00
    Z_110     Z_300     -9.5078406045273300e-01
    Z_110     Z_310     -9.0696680018815934e-01
    Z_110     Z_320     -8.8311037787638669e-01
    Z_111     Z_201     -9.4486999308582931e-01
    Z_111     Z_211     -1.0405686053768415e+00
    Z_111     Z_301     -9.5078406045273300e-01
    Z_111     Z_311     -9.0696680018815934e-01
    Z_111     Z_321     -8.8311037787638669e-01
    Z_112     Z_202     -9.4486999308582931e-01
    Z_112     Z_212     -1.0405686053768415e+00
    Z_112     Z_302     -9.5078406045273300e-01
    Z_112     Z_312     -9.0696680018815934e-01
    Z_112     Z_322     -8.8311037787638669e-01
    Z_113     Z_203     -9.4486999308582931e-01
    Z_113     Z_213     -1.0405686053768415e+00
    Z_113     Z_303     -9.5078406045273300e-01
    Z_113     Z_313     -9.0696680018815934e-01
    Z_113     Z_323     -8.8311037787638669e-01
    Z_120     Z_200     -1.0549148321151733e+00
    Z_120     Z_210     -8.2120466232299805e-01
    Z_120     Z_300     -9.3167370557785034e-01
    Z_120     Z_310     -1.0026863962714951e+00
    Z_120     Z_320     -9.3380057970403707e-01
    Z_121     Z_201     -1.0549148321151733e+00
    Z_121     Z_211     -8.2120466232299805e-01
    Z_121     Z_301     -9.3167370557785034e-01
    Z_121     Z_311     -1.0026863962714951e+00
    Z_121     Z_321     -9.3380057970403707e-01
    Z_122     Z_202     -1.0549148321151733e+00
    Z_122     Z_212     -8.2120466232299805e-01
    Z_122     Z_302     -9.3167370557785034e-01
    Z_122     Z_312     -1.0026863962714951e+00
    Z_122     Z_322     -9.3380057970403707e-01
    Z_123     Z_203     -1.0549148321151733e+00
    Z_123     Z_213     -8.2120466232299805e-01
    Z_123     Z_303     -9.3167370557785034e-01
    Z_123     Z_313     -1.0026863962714951e+00
    Z_123     Z_323     -9.3380057970403707e-01
    Z_200     Z_300     -7.9324907064437866e-01
    Z_200     Z_310     -9.4145257275874972e-01
    Z_200     Z_320     -1.1060318083642557e+00
    Z_201     Z_301     -7.9324907064437866e-01
    Z_201     Z_311     -9.4145257275874972e-01
    Z_201     Z_321     -1.1060318083642557e+00
    Z_202     Z_302     -7.9324907064437866e-01
    Z_202     Z_312     -9.4145257275874972e-01
    Z_202     Z_322     -1.1060318083642557e+00
    Z_203     Z_303     -7.9324907064437866e-01
    Z_203     Z_313     -9.4145257275874972e-01
    Z_203     Z_323     -1.1060318083642557e+00
    Z_210     Z_300     -8.6215960979461670e-01
    Z_210     Z_310     -9.9140861323042828e-01
    Z_210     Z_320     -9.7207862201761719e-01
    Z_211     Z_301     -8.6215960979461670e-01
    Z_211     Z_311     -9.9140861323042828e-01
    Z_211     Z_321     -9.7207862201761719e-01
    Z_212     Z_302     -8.6215960979461670e-01
    Z_212     Z_312     -9.9140861323042828e-01
    Z_212     Z_322     -9.7207862201761719e-01
    Z_213     Z_303     -8.6215960979461670e-01
    Z_213     Z_313     -9.9140861323042828e-01
    Z_213     Z_323     -9.7207862201761719e-01
ENDATA
